Li24 Mn4 Al4 Ru4 O36                    
   1.00000000000000     
     5.0941023068121067   -0.0000249699075750   -0.0238501923510470
    -0.0000422321161656    8.7133264554257632    0.0001153147769374
     0.0239524527629601    0.0001881036678400   14.2370718166189363
   Li   Mn   Al   Ru   O 
    24     4     4     4    36
Direct
  0.4978295790133956  0.3415908963969178 -0.0102331645834702
  0.4959445536021048  0.6514358122723442 -0.0066356854303185
  0.6688931615056680  0.8416058688338980  0.1768367318893820
  0.6707268833901373  0.1514256905148389  0.1732689682830239
  0.5083203896327316  0.0104779359169241 -0.0043009704947575
  0.6584075575155971  0.5105391307568187  0.1709293858675183
 -0.0100029334757862  0.4964823569163097 -0.0039401209800303
  0.1766142190924448 -0.0035193598200783  0.1706096481250668
  0.8331835970798244  0.3349439088313112  0.3333028400936516
  0.8331734301986816  0.6695831475901542  0.3333083511674664
 -0.0021704209866038  0.8415909728229582  0.4897668354165295
 -0.0040554463978949  0.1514357358463028  0.4933643145696812
  0.8333345493621599 -0.0040639403391494  0.3333268895943974
  0.0083203896327315  0.5104779359169246  0.4956990295052429
  0.3332042732038795  0.5059350368016423  0.3333617273885328
  0.4899970665242140 -0.0035176430836908  0.4960598790199698
  0.1688964948390073  0.3416057924078570  0.6768333985560429
  0.1707302167234757  0.6514257669408782  0.6732656349496848
  0.3331869304131644  0.8349439852573525  0.8332995067603126
  0.3331767635320211  0.1695830711641129  0.8333050178341271
  0.1584108908489373  0.0105391307568191  0.6709260525341788
  0.3333378826954986  0.4959360596608505  0.8333235562610580
  0.6766108857591056  0.4964806401799216  0.6706063147917277
  0.8332009398705408  0.0059350368016425  0.8333583940551943
 -0.0043639287741141  0.1707525664886695 -0.0034411496040013
  0.1711321368414467  0.6707451716717795  0.1701415395469431
  0.4956360712258862  0.6707528132315405  0.4965588503959986
  0.6711288035081074  0.1707449249289083  0.6701382062136030
  0.3333096933622043  0.1555524360854155  0.3333361042618354
  0.3333274202577841  0.8373338958616368  0.3333383754454623
  0.8333063600288645  0.6555526828282877  0.8333327709284964
  0.8333240869244464  0.3373336491187640  0.8333350421121236
 -0.0045100784223743  0.8314188368152515 -0.0003166700763782
  0.1712366794142963  0.3314233671254526  0.1669988555658179
  0.4954899215776255  0.3314185900723809  0.4996833299236220
  0.6712333460809574  0.8314236138683232  0.6669955222324789
  0.3083680897417387  0.1765043133858950  0.0805014690038331
  0.0288218056284141  0.8202373419669329  0.2512697874177937
  0.0268195969763738  0.1777111480945197  0.2516220667651393
  0.3084625856689643  0.8218035385635933  0.0834246472583394
  0.4699865114482443  0.6784149048426885  0.2488975518358166
  0.8583064940315234  0.3218362411887192  0.0832262494467003
  0.8583792108160623  0.6764956707882517  0.0861914605227680
  0.4745029084119808  0.3196726269818258  0.2501124474617510
  0.8429948121853880  0.0024988810774910  0.0739118720072672
  0.4905708764622296 -0.0004154522695008  0.2615823659940071
  0.0102706037597598  0.5017310054982232  0.2411486673610451
  0.3237782253786247  0.5025093547909292  0.0927896362399432
  0.6397740652225989  0.1776978181429342  0.4150440889674843
  0.3583065897474216  0.8218361296149573  0.5832262548764905
  0.3583793065319595  0.1764957823620130  0.5861914659525586
  0.6378227194684388  0.8202519558933591  0.4154047010858089
  0.8083681854576360  0.6765042018121322  0.5805014744336235
  0.1921698937883072  0.3196756445888218  0.4165771419049686
  0.1967407611191151  0.6784089380204654  0.4178008927110381
  0.8084626813848615  0.3218036501373551  0.5834246526881287
  0.1760308217173913 -0.0004164965706235  0.4050926850084853
  0.8237781187200988  0.0025093547909292  0.5927897152223666
  0.3429947055268628  0.5024988810774920  0.5739119509896911
  0.6564387506014915  0.5017198062953416  0.4255305231056971
  0.9699864157323481  0.1784150164164508  0.7488975464060273
  0.6921699895042047  0.8196755330150594  0.9165771473347595
  0.6967408568350133  0.1784090495942277  0.9178008981408270
  0.9745028126960840  0.8196725154080637  0.7501124420319614
  0.1397741609384957  0.6776977065691718  0.9150440943972731
  0.5288217099125169  0.3202374535406933  0.7512697819880041
  0.5268195012604769  0.6777110365207577  0.7516220613353498
  0.1378228151843353  0.3202520674671209  0.9154047065155991
  0.5102707104182853  0.0017310054982228  0.7411485883786202
  0.1564386439429655  0.0017198062953413  0.9255306020881209
  0.6760307150588657  0.4995835034293765  0.9050927639909101
  0.9905709831207566  0.4995845477304986  0.7615822870115830
 
  0.00000000E+00  0.00000000E+00  0.00000000E+00
  0.00000000E+00  0.00000000E+00  0.00000000E+00
  0.00000000E+00  0.00000000E+00  0.00000000E+00
  0.00000000E+00  0.00000000E+00  0.00000000E+00
  0.00000000E+00  0.00000000E+00  0.00000000E+00
  0.00000000E+00  0.00000000E+00  0.00000000E+00
  0.00000000E+00  0.00000000E+00  0.00000000E+00
  0.00000000E+00  0.00000000E+00  0.00000000E+00
  0.00000000E+00  0.00000000E+00  0.00000000E+00
  0.00000000E+00  0.00000000E+00  0.00000000E+00
  0.00000000E+00  0.00000000E+00  0.00000000E+00
  0.00000000E+00  0.00000000E+00  0.00000000E+00
  0.00000000E+00  0.00000000E+00  0.00000000E+00
  0.00000000E+00  0.00000000E+00  0.00000000E+00
  0.00000000E+00  0.00000000E+00  0.00000000E+00
  0.00000000E+00  0.00000000E+00  0.00000000E+00
  0.00000000E+00  0.00000000E+00  0.00000000E+00
  0.00000000E+00  0.00000000E+00  0.00000000E+00
  0.00000000E+00  0.00000000E+00  0.00000000E+00
  0.00000000E+00  0.00000000E+00  0.00000000E+00
  0.00000000E+00  0.00000000E+00  0.00000000E+00
  0.00000000E+00  0.00000000E+00  0.00000000E+00
  0.00000000E+00  0.00000000E+00  0.00000000E+00
  0.00000000E+00  0.00000000E+00  0.00000000E+00
  0.00000000E+00  0.00000000E+00  0.00000000E+00
  0.00000000E+00  0.00000000E+00  0.00000000E+00
  0.00000000E+00  0.00000000E+00  0.00000000E+00
  0.00000000E+00  0.00000000E+00  0.00000000E+00
  0.00000000E+00  0.00000000E+00  0.00000000E+00
  0.00000000E+00  0.00000000E+00  0.00000000E+00
  0.00000000E+00  0.00000000E+00  0.00000000E+00
  0.00000000E+00  0.00000000E+00  0.00000000E+00
  0.00000000E+00  0.00000000E+00  0.00000000E+00
  0.00000000E+00  0.00000000E+00  0.00000000E+00
  0.00000000E+00  0.00000000E+00  0.00000000E+00
  0.00000000E+00  0.00000000E+00  0.00000000E+00
  0.00000000E+00  0.00000000E+00  0.00000000E+00
  0.00000000E+00  0.00000000E+00  0.00000000E+00
  0.00000000E+00  0.00000000E+00  0.00000000E+00
  0.00000000E+00  0.00000000E+00  0.00000000E+00
  0.00000000E+00  0.00000000E+00  0.00000000E+00
  0.00000000E+00  0.00000000E+00  0.00000000E+00
  0.00000000E+00  0.00000000E+00  0.00000000E+00
  0.00000000E+00  0.00000000E+00  0.00000000E+00
  0.00000000E+00  0.00000000E+00  0.00000000E+00
  0.00000000E+00  0.00000000E+00  0.00000000E+00
  0.00000000E+00  0.00000000E+00  0.00000000E+00
  0.00000000E+00  0.00000000E+00  0.00000000E+00
  0.00000000E+00  0.00000000E+00  0.00000000E+00
  0.00000000E+00  0.00000000E+00  0.00000000E+00
  0.00000000E+00  0.00000000E+00  0.00000000E+00
  0.00000000E+00  0.00000000E+00  0.00000000E+00
  0.00000000E+00  0.00000000E+00  0.00000000E+00
  0.00000000E+00  0.00000000E+00  0.00000000E+00
  0.00000000E+00  0.00000000E+00  0.00000000E+00
  0.00000000E+00  0.00000000E+00  0.00000000E+00
  0.00000000E+00  0.00000000E+00  0.00000000E+00
  0.00000000E+00  0.00000000E+00  0.00000000E+00
  0.00000000E+00  0.00000000E+00  0.00000000E+00
  0.00000000E+00  0.00000000E+00  0.00000000E+00
  0.00000000E+00  0.00000000E+00  0.00000000E+00
  0.00000000E+00  0.00000000E+00  0.00000000E+00
  0.00000000E+00  0.00000000E+00  0.00000000E+00
  0.00000000E+00  0.00000000E+00  0.00000000E+00
  0.00000000E+00  0.00000000E+00  0.00000000E+00
  0.00000000E+00  0.00000000E+00  0.00000000E+00
  0.00000000E+00  0.00000000E+00  0.00000000E+00
  0.00000000E+00  0.00000000E+00  0.00000000E+00
  0.00000000E+00  0.00000000E+00  0.00000000E+00
  0.00000000E+00  0.00000000E+00  0.00000000E+00
  0.00000000E+00  0.00000000E+00  0.00000000E+00
  0.00000000E+00  0.00000000E+00  0.00000000E+00
